n = 50;
C = 7293;
w = [438,352,34,333,370,462,452,289,376,419,407,477,321,104,85,135,131,496,473,466,445,40,292,437,204,180,90,86,465,181,80,269,211,128,461,374,51,182,322,292,487,24,370,256,92,457,350,373,463,304];
p = [438,352,34,333,370,462,452,289,376,419,407,477,321,104,85,135,131,496,473,466,445,40,292,437,204,180,90,86,465,181,80,269,211,128,461,374,51,182,322,292,487,24,370,256,92,457,350,373,463,304];
